array [1..10] of int: X_INTRODUCED_98_ = [1,-2,-1,-1,-1,-1,-1,-1,-1,-1];
var 0..224: X_INTRODUCED_0_;
var 0..224: X_INTRODUCED_1_;
var 0..224: X_INTRODUCED_2_;
var 0..224: X_INTRODUCED_3_;
var 0..224: X_INTRODUCED_5_;
var 0..224: X_INTRODUCED_6_;
var 0..224: X_INTRODUCED_8_;
var 0..2334464: objective:: output_var:: is_defined_var;
var 0..224: X_INTRODUCED_18_ ::var_is_introduced :: is_defined_var;
var 0..224: X_INTRODUCED_19_ ::var_is_introduced :: is_defined_var;
var 0..224: X_INTRODUCED_20_ ::var_is_introduced :: is_defined_var;
var 0..224: X_INTRODUCED_21_ ::var_is_introduced ;
var 0..224: X_INTRODUCED_31_ ::var_is_introduced :: is_defined_var;
var 0..224: X_INTRODUCED_32_ ::var_is_introduced :: is_defined_var;
var -188160..136192: X_INTRODUCED_35_ ::var_is_introduced :: is_defined_var;
var 0..188160: X_INTRODUCED_36_ ::var_is_introduced :: is_defined_var;
var 0..224: X_INTRODUCED_37_ ::var_is_introduced :: is_defined_var;
var 0..224: X_INTRODUCED_38_ ::var_is_introduced :: is_defined_var;
var -94976..229376: X_INTRODUCED_40_ ::var_is_introduced :: is_defined_var;
var 0..229376: X_INTRODUCED_41_ ::var_is_introduced :: is_defined_var;
var 0..224: X_INTRODUCED_42_ ::var_is_introduced :: is_defined_var;
var 0..224: X_INTRODUCED_43_ ::var_is_introduced :: is_defined_var;
var -165632..158720: X_INTRODUCED_45_ ::var_is_introduced :: is_defined_var;
var 0..165632: X_INTRODUCED_46_ ::var_is_introduced :: is_defined_var;
var -224..224: X_INTRODUCED_47_ ::var_is_introduced :: is_defined_var;
var 0..224: X_INTRODUCED_48_ ::var_is_introduced :: is_defined_var;
var -224..224: X_INTRODUCED_49_ ::var_is_introduced :: is_defined_var;
var 0..224: X_INTRODUCED_50_ ::var_is_introduced :: is_defined_var;
var 0..224: X_INTRODUCED_51_ ::var_is_introduced :: is_defined_var;
var 0..224: X_INTRODUCED_52_ ::var_is_introduced :: is_defined_var;
var -320256..4096: X_INTRODUCED_54_ ::var_is_introduced :: is_defined_var;
var 0..320256: X_INTRODUCED_55_ ::var_is_introduced :: is_defined_var;
var -224..224: X_INTRODUCED_56_ ::var_is_introduced :: is_defined_var;
var 0..224: X_INTRODUCED_57_ ::var_is_introduced :: is_defined_var;
var -224..224: X_INTRODUCED_58_ ::var_is_introduced :: is_defined_var;
var 0..224: X_INTRODUCED_59_ ::var_is_introduced :: is_defined_var;
var 0..224: X_INTRODUCED_60_ ::var_is_introduced :: is_defined_var;
var 0..224: X_INTRODUCED_61_ ::var_is_introduced :: is_defined_var;
var -320256..4096: X_INTRODUCED_63_ ::var_is_introduced :: is_defined_var;
var 0..320256: X_INTRODUCED_64_ ::var_is_introduced :: is_defined_var;
var -224..224: X_INTRODUCED_65_ ::var_is_introduced :: is_defined_var;
var 0..224: X_INTRODUCED_66_ ::var_is_introduced :: is_defined_var;
var -224..224: X_INTRODUCED_67_ ::var_is_introduced :: is_defined_var;
var 0..224: X_INTRODUCED_68_ ::var_is_introduced :: is_defined_var;
var 0..224: X_INTRODUCED_69_ ::var_is_introduced :: is_defined_var;
var 0..224: X_INTRODUCED_70_ ::var_is_introduced :: is_defined_var;
var -239360..84992: X_INTRODUCED_72_ ::var_is_introduced :: is_defined_var;
var 0..239360: X_INTRODUCED_73_ ::var_is_introduced :: is_defined_var;
var -224..224: X_INTRODUCED_74_ ::var_is_introduced :: is_defined_var;
var 0..224: X_INTRODUCED_75_ ::var_is_introduced :: is_defined_var;
var -224..224: X_INTRODUCED_76_ ::var_is_introduced :: is_defined_var;
var 0..224: X_INTRODUCED_77_ ::var_is_introduced :: is_defined_var;
var 0..224: X_INTRODUCED_78_ ::var_is_introduced :: is_defined_var;
var 0..224: X_INTRODUCED_79_ ::var_is_introduced :: is_defined_var;
var -292608..31744: X_INTRODUCED_81_ ::var_is_introduced :: is_defined_var;
var 0..292608: X_INTRODUCED_82_ ::var_is_introduced :: is_defined_var;
var -224..224: X_INTRODUCED_83_ ::var_is_introduced :: is_defined_var;
var 0..224: X_INTRODUCED_84_ ::var_is_introduced :: is_defined_var;
var -224..224: X_INTRODUCED_85_ ::var_is_introduced :: is_defined_var;
var 0..224: X_INTRODUCED_86_ ::var_is_introduced :: is_defined_var;
var 0..224: X_INTRODUCED_87_ ::var_is_introduced :: is_defined_var;
var 0..224: X_INTRODUCED_88_ ::var_is_introduced :: is_defined_var;
var -228096..96256: X_INTRODUCED_90_ ::var_is_introduced :: is_defined_var;
var 0..228096: X_INTRODUCED_91_ ::var_is_introduced :: is_defined_var;
var 0..224: X_INTRODUCED_92_ ::var_is_introduced :: is_defined_var;
var 0..224: X_INTRODUCED_93_ ::var_is_introduced :: is_defined_var;
var -162560..161792: X_INTRODUCED_95_ ::var_is_introduced :: is_defined_var;
var 0..162560: X_INTRODUCED_96_ ::var_is_introduced :: is_defined_var;
array [1..5] of var int: x:: output_array([1..5]) = [X_INTRODUCED_0_,X_INTRODUCED_1_,X_INTRODUCED_2_,X_INTRODUCED_3_,0];
array [1..5] of var int: y:: output_array([1..5]) = [X_INTRODUCED_5_,X_INTRODUCED_6_,X_INTRODUCED_21_,X_INTRODUCED_8_,0];
constraint int_max(X_INTRODUCED_6_,X_INTRODUCED_5_,X_INTRODUCED_18_):: defines_var(X_INTRODUCED_18_);
constraint int_max(X_INTRODUCED_21_,X_INTRODUCED_18_,X_INTRODUCED_19_):: defines_var(X_INTRODUCED_19_);
constraint int_max(X_INTRODUCED_8_,X_INTRODUCED_19_,X_INTRODUCED_20_):: defines_var(X_INTRODUCED_20_);
constraint int_max(0,X_INTRODUCED_20_,X_INTRODUCED_21_);
constraint int_lin_le([-2,1],[X_INTRODUCED_3_,X_INTRODUCED_2_],-1);
constraint int_max(X_INTRODUCED_0_,X_INTRODUCED_5_,X_INTRODUCED_31_):: defines_var(X_INTRODUCED_31_);
constraint int_min(X_INTRODUCED_0_,X_INTRODUCED_5_,X_INTRODUCED_32_):: defines_var(X_INTRODUCED_32_);
constraint int_abs(X_INTRODUCED_35_,X_INTRODUCED_36_):: defines_var(X_INTRODUCED_36_);
constraint int_max(X_INTRODUCED_2_,X_INTRODUCED_21_,X_INTRODUCED_37_):: defines_var(X_INTRODUCED_37_);
constraint int_min(X_INTRODUCED_2_,X_INTRODUCED_21_,X_INTRODUCED_38_):: defines_var(X_INTRODUCED_38_);
constraint int_abs(X_INTRODUCED_40_,X_INTRODUCED_41_):: defines_var(X_INTRODUCED_41_);
constraint int_max(X_INTRODUCED_1_,X_INTRODUCED_6_,X_INTRODUCED_42_):: defines_var(X_INTRODUCED_42_);
constraint int_min(X_INTRODUCED_1_,X_INTRODUCED_6_,X_INTRODUCED_43_):: defines_var(X_INTRODUCED_43_);
constraint int_abs(X_INTRODUCED_45_,X_INTRODUCED_46_):: defines_var(X_INTRODUCED_46_);
constraint int_abs(X_INTRODUCED_47_,X_INTRODUCED_48_):: defines_var(X_INTRODUCED_48_);
constraint int_abs(X_INTRODUCED_49_,X_INTRODUCED_50_):: defines_var(X_INTRODUCED_50_);
constraint int_max(X_INTRODUCED_48_,X_INTRODUCED_50_,X_INTRODUCED_51_):: defines_var(X_INTRODUCED_51_);
constraint int_min(X_INTRODUCED_48_,X_INTRODUCED_50_,X_INTRODUCED_52_):: defines_var(X_INTRODUCED_52_);
constraint int_abs(X_INTRODUCED_54_,X_INTRODUCED_55_):: defines_var(X_INTRODUCED_55_);
constraint int_abs(X_INTRODUCED_56_,X_INTRODUCED_57_):: defines_var(X_INTRODUCED_57_);
constraint int_abs(X_INTRODUCED_58_,X_INTRODUCED_59_):: defines_var(X_INTRODUCED_59_);
constraint int_max(X_INTRODUCED_57_,X_INTRODUCED_59_,X_INTRODUCED_60_):: defines_var(X_INTRODUCED_60_);
constraint int_min(X_INTRODUCED_57_,X_INTRODUCED_59_,X_INTRODUCED_61_):: defines_var(X_INTRODUCED_61_);
constraint int_abs(X_INTRODUCED_63_,X_INTRODUCED_64_):: defines_var(X_INTRODUCED_64_);
constraint int_abs(X_INTRODUCED_65_,X_INTRODUCED_66_):: defines_var(X_INTRODUCED_66_);
constraint int_abs(X_INTRODUCED_67_,X_INTRODUCED_68_):: defines_var(X_INTRODUCED_68_);
constraint int_max(X_INTRODUCED_66_,X_INTRODUCED_68_,X_INTRODUCED_69_):: defines_var(X_INTRODUCED_69_);
constraint int_min(X_INTRODUCED_66_,X_INTRODUCED_68_,X_INTRODUCED_70_):: defines_var(X_INTRODUCED_70_);
constraint int_abs(X_INTRODUCED_72_,X_INTRODUCED_73_):: defines_var(X_INTRODUCED_73_);
constraint int_abs(X_INTRODUCED_74_,X_INTRODUCED_75_):: defines_var(X_INTRODUCED_75_);
constraint int_abs(X_INTRODUCED_76_,X_INTRODUCED_77_):: defines_var(X_INTRODUCED_77_);
constraint int_max(X_INTRODUCED_75_,X_INTRODUCED_77_,X_INTRODUCED_78_):: defines_var(X_INTRODUCED_78_);
constraint int_min(X_INTRODUCED_75_,X_INTRODUCED_77_,X_INTRODUCED_79_):: defines_var(X_INTRODUCED_79_);
constraint int_abs(X_INTRODUCED_81_,X_INTRODUCED_82_):: defines_var(X_INTRODUCED_82_);
constraint int_abs(X_INTRODUCED_83_,X_INTRODUCED_84_):: defines_var(X_INTRODUCED_84_);
constraint int_abs(X_INTRODUCED_85_,X_INTRODUCED_86_):: defines_var(X_INTRODUCED_86_);
constraint int_max(X_INTRODUCED_84_,X_INTRODUCED_86_,X_INTRODUCED_87_):: defines_var(X_INTRODUCED_87_);
constraint int_min(X_INTRODUCED_84_,X_INTRODUCED_86_,X_INTRODUCED_88_):: defines_var(X_INTRODUCED_88_);
constraint int_abs(X_INTRODUCED_90_,X_INTRODUCED_91_):: defines_var(X_INTRODUCED_91_);
constraint int_max(X_INTRODUCED_3_,X_INTRODUCED_8_,X_INTRODUCED_92_):: defines_var(X_INTRODUCED_92_);
constraint int_min(X_INTRODUCED_3_,X_INTRODUCED_8_,X_INTRODUCED_93_):: defines_var(X_INTRODUCED_93_);
constraint int_abs(X_INTRODUCED_95_,X_INTRODUCED_96_):: defines_var(X_INTRODUCED_96_);
constraint int_lin_eq(X_INTRODUCED_98_,[objective,X_INTRODUCED_36_,X_INTRODUCED_41_,X_INTRODUCED_46_,X_INTRODUCED_55_,X_INTRODUCED_64_,X_INTRODUCED_73_,X_INTRODUCED_82_,X_INTRODUCED_91_,X_INTRODUCED_96_],0):: defines_var(objective);
constraint int_lin_eq([-1007,-441,-1],[X_INTRODUCED_31_,X_INTRODUCED_32_,X_INTRODUCED_35_],-136192):: defines_var(X_INTRODUCED_35_);
constraint int_lin_eq([-1007,-441,-1],[X_INTRODUCED_37_,X_INTRODUCED_38_,X_INTRODUCED_40_],-229376):: defines_var(X_INTRODUCED_40_);
constraint int_lin_eq([-1007,-441,-1],[X_INTRODUCED_42_,X_INTRODUCED_43_,X_INTRODUCED_45_],-158720):: defines_var(X_INTRODUCED_45_);
constraint int_lin_eq([1,-1,-1],[X_INTRODUCED_1_,X_INTRODUCED_3_,X_INTRODUCED_47_],0):: defines_var(X_INTRODUCED_47_);
constraint int_lin_eq([1,-1,-1],[X_INTRODUCED_6_,X_INTRODUCED_8_,X_INTRODUCED_49_],0):: defines_var(X_INTRODUCED_49_);
constraint int_lin_eq([-1007,-441,-1],[X_INTRODUCED_51_,X_INTRODUCED_52_,X_INTRODUCED_54_],-4096):: defines_var(X_INTRODUCED_54_);
constraint int_lin_eq([1,-1,-1],[X_INTRODUCED_3_,X_INTRODUCED_1_,X_INTRODUCED_56_],0):: defines_var(X_INTRODUCED_56_);
constraint int_lin_eq([1,-1,-1],[X_INTRODUCED_8_,X_INTRODUCED_6_,X_INTRODUCED_58_],0):: defines_var(X_INTRODUCED_58_);
constraint int_lin_eq([-1007,-441,-1],[X_INTRODUCED_60_,X_INTRODUCED_61_,X_INTRODUCED_63_],-4096):: defines_var(X_INTRODUCED_63_);
constraint int_lin_eq([1,-1,-1],[X_INTRODUCED_3_,X_INTRODUCED_2_,X_INTRODUCED_65_],0):: defines_var(X_INTRODUCED_65_);
constraint int_lin_eq([1,-1,-1],[X_INTRODUCED_8_,X_INTRODUCED_21_,X_INTRODUCED_67_],0):: defines_var(X_INTRODUCED_67_);
constraint int_lin_eq([-1007,-441,-1],[X_INTRODUCED_69_,X_INTRODUCED_70_,X_INTRODUCED_72_],-84992):: defines_var(X_INTRODUCED_72_);
constraint int_lin_eq([1,-1,-1],[X_INTRODUCED_3_,X_INTRODUCED_0_,X_INTRODUCED_74_],0):: defines_var(X_INTRODUCED_74_);
constraint int_lin_eq([1,-1,-1],[X_INTRODUCED_8_,X_INTRODUCED_5_,X_INTRODUCED_76_],0):: defines_var(X_INTRODUCED_76_);
constraint int_lin_eq([-1007,-441,-1],[X_INTRODUCED_78_,X_INTRODUCED_79_,X_INTRODUCED_81_],-31744):: defines_var(X_INTRODUCED_81_);
constraint int_lin_eq([1,-1,-1],[X_INTRODUCED_0_,X_INTRODUCED_2_,X_INTRODUCED_83_],0):: defines_var(X_INTRODUCED_83_);
constraint int_lin_eq([1,-1,-1],[X_INTRODUCED_5_,X_INTRODUCED_21_,X_INTRODUCED_85_],0):: defines_var(X_INTRODUCED_85_);
constraint int_lin_eq([-1007,-441,-1],[X_INTRODUCED_87_,X_INTRODUCED_88_,X_INTRODUCED_90_],-96256):: defines_var(X_INTRODUCED_90_);
constraint int_lin_eq([-1007,-441,-1],[X_INTRODUCED_92_,X_INTRODUCED_93_,X_INTRODUCED_95_],-161792):: defines_var(X_INTRODUCED_95_);
solve :: seq_search([int_search(x,first_fail,indomain_min,complete),int_search(y,first_fail,indomain_min,complete)]) minimize objective;
